10
Converted from VASP Direct coords of *C4H6 in DFT calculation model of reaction pathway model of 100%H of in SI of 'Selective electrosynthesis of 1,3-butadiene by tailoring the coverage of acetylene and water' ~Cheng.
C -1.874664 -0.036505 -0.098806
C -0.576343 0.422194 -0.115814
C 0.588653 -0.440172 -0.063194
C 1.874888 0.034378 0.006515
H -2.699046 0.666894 0.016131
H -2.099901 -1.094150 0.037263
H -0.397812 1.501646 -0.074631
H 0.407008 -1.515187 0.009458
H 2.067401 1.103104 0.106656
H 2.709816 -0.642202 0.176423
